p tw 520 7801 7 
1 8 
1 11 
2 9 
2 10 
2 12 
3 7 
3 10 
3 291 
4 8 
4 9 
4 292 
5 7 
5 9 
5 451 
6 8 
6 10 
6 452 
11 17 
11 18 
12 19 
12 20 
13 17 
13 20 
13 51 
14 18 
14 19 
14 52 
15 17 
15 19 
15 293 
16 18 
16 20 
16 294 
21 27 
21 28 
21 71 
22 29 
22 30 
22 72 
23 27 
23 30 
23 191 
24 28 
24 29 
24 192 
25 27 
25 29 
25 251 
26 28 
26 30 
26 252 
31 37 
31 38 
31 161 
32 39 
32 40 
32 162 
33 37 
33 40 
33 441 
34 38 
34 39 
34 442 
35 37 
35 39 
35 453 
36 38 
36 40 
36 454 
41 47 
41 48 
41 81 
42 49 
42 50 
42 82 
43 47 
43 50 
43 241 
44 48 
44 49 
44 242 
45 47 
45 49 
45 421 
46 48 
46 50 
46 422 
51 57 
51 58 
52 59 
52 60 
53 57 
53 60 
53 83 
54 58 
54 59 
54 84 
55 57 
55 59 
55 181 
56 58 
56 60 
56 182 
61 67 
61 68 
61 171 
62 69 
62 70 
62 172 
63 67 
63 70 
63 461 
64 68 
64 69 
64 462 
65 67 
65 69 
65 471 
66 68 
66 70 
66 472 
71 77 
71 78 
72 79 
72 80 
73 77 
73 80 
73 351 
74 78 
74 79 
74 352 
75 77 
75 79 
75 473 
76 78 
76 80 
76 474 
81 87 
81 88 
82 89 
82 90 
83 87 
83 90 
84 88 
84 89 
85 87 
85 89 
85 221 
86 88 
86 90 
86 222 
91 97 
91 98 
91 311 
92 99 
92 100 
92 312 
93 97 
93 100 
93 353 
94 98 
94 99 
94 354 
95 97 
95 99 
95 361 
96 98 
96 100 
96 362 
101 107 
101 108 
101 201 
102 109 
102 110 
102 202 
103 107 
103 110 
103 281 
104 108 
104 109 
104 282 
105 107 
105 109 
105 371 
106 108 
106 110 
106 372 
111 117 
111 118 
111 331 
112 119 
112 120 
112 332 
113 117 
113 120 
113 455 
114 118 
114 119 
114 456 
115 117 
115 119 
115 475 
116 118 
116 120 
116 476 
121 127 
121 128 
121 141 
122 129 
122 130 
122 142 
123 127 
123 130 
123 301 
124 128 
124 129 
124 302 
125 127 
125 129 
125 491 
126 128 
126 130 
126 492 
131 137 
131 138 
131 183 
132 139 
132 140 
132 184 
133 137 
133 140 
133 493 
134 138 
134 139 
134 494 
135 137 
135 139 
135 511 
136 138 
136 140 
136 512 
141 147 
141 148 
142 149 
142 150 
143 147 
143 150 
143 411 
144 148 
144 149 
144 412 
145 147 
145 149 
145 495 
146 148 
146 150 
146 496 
151 157 
151 158 
151 211 
152 159 
152 160 
152 212 
153 157 
153 160 
153 231 
154 158 
154 159 
154 232 
155 157 
155 159 
155 321 
156 158 
156 160 
156 322 
161 167 
161 168 
162 169 
162 170 
163 167 
163 170 
163 223 
164 168 
164 169 
164 224 
165 167 
165 169 
165 303 
166 168 
166 170 
166 304 
171 177 
171 178 
172 179 
172 180 
173 177 
173 180 
173 313 
174 178 
174 179 
174 314 
175 177 
175 179 
175 401 
176 178 
176 180 
176 402 
181 187 
181 188 
182 189 
182 190 
183 187 
183 190 
184 188 
184 189 
185 187 
185 189 
185 341 
186 188 
186 190 
186 342 
191 197 
191 198 
192 199 
192 200 
193 197 
193 200 
193 295 
194 198 
194 199 
194 296 
195 197 
195 199 
195 423 
196 198 
196 200 
196 424 
201 207 
201 208 
202 209 
202 210 
203 207 
203 210 
203 283 
204 208 
204 209 
204 284 
205 207 
205 209 
205 443 
206 208 
206 210 
206 444 
211 217 
211 218 
212 219 
212 220 
213 217 
213 220 
213 425 
214 218 
214 219 
214 426 
215 217 
215 219 
215 463 
216 218 
216 220 
216 464 
221 227 
221 228 
222 229 
222 230 
223 227 
223 230 
224 228 
224 229 
225 227 
225 229 
225 261 
226 228 
226 230 
226 262 
231 237 
231 238 
232 239 
232 240 
233 237 
233 240 
233 263 
234 238 
234 239 
234 264 
235 237 
235 239 
235 373 
236 238 
236 240 
236 374 
241 247 
241 248 
242 249 
242 250 
243 247 
243 250 
243 333 
244 248 
244 249 
244 334 
245 247 
245 249 
245 465 
246 248 
246 250 
246 466 
251 257 
251 258 
252 259 
252 260 
253 257 
253 260 
253 391 
254 258 
254 259 
254 392 
255 257 
255 259 
255 501 
256 258 
256 260 
256 502 
261 267 
261 268 
262 269 
262 270 
263 267 
263 270 
264 268 
264 269 
265 267 
265 269 
265 363 
266 268 
266 270 
266 364 
271 277 
271 278 
271 323 
272 279 
272 280 
272 324 
273 277 
273 280 
273 343 
274 278 
274 279 
274 344 
275 277 
275 279 
275 365 
276 278 
276 280 
276 366 
281 287 
281 288 
282 289 
282 290 
283 287 
283 290 
284 288 
284 289 
285 287 
285 289 
285 315 
286 288 
286 290 
286 316 
291 297 
291 298 
292 299 
292 300 
293 297 
293 300 
294 298 
294 299 
295 297 
295 299 
296 298 
296 300 
301 307 
301 308 
302 309 
302 310 
303 307 
303 310 
304 308 
304 309 
305 307 
305 309 
305 503 
306 308 
306 310 
306 504 
311 317 
311 318 
312 319 
312 320 
313 317 
313 320 
314 318 
314 319 
315 317 
315 319 
316 318 
316 320 
321 327 
321 328 
322 329 
322 330 
323 327 
323 330 
324 328 
324 329 
325 327 
325 329 
325 345 
326 328 
326 330 
326 346 
331 337 
331 338 
332 339 
332 340 
333 337 
333 340 
334 338 
334 339 
335 337 
335 339 
335 403 
336 338 
336 340 
336 404 
341 347 
341 348 
342 349 
342 350 
343 347 
343 350 
344 348 
344 349 
345 347 
345 349 
346 348 
346 350 
351 357 
351 358 
352 359 
352 360 
353 357 
353 360 
354 358 
354 359 
355 357 
355 359 
355 481 
356 358 
356 360 
356 482 
361 367 
361 368 
362 369 
362 370 
363 367 
363 370 
364 368 
364 369 
365 367 
365 369 
366 368 
366 370 
371 377 
371 378 
372 379 
372 380 
373 377 
373 380 
374 378 
374 379 
375 377 
375 379 
375 405 
376 378 
376 380 
376 406 
381 387 
381 388 
381 431 
382 389 
382 390 
382 432 
383 387 
383 390 
383 445 
384 388 
384 389 
384 446 
385 387 
385 389 
385 513 
386 388 
386 390 
386 514 
391 397 
391 398 
392 399 
392 400 
393 397 
393 400 
393 433 
394 398 
394 399 
394 434 
395 397 
395 399 
395 483 
396 398 
396 400 
396 484 
401 407 
401 408 
402 409 
402 410 
403 407 
403 410 
404 408 
404 409 
405 407 
405 409 
406 408 
406 410 
411 417 
411 418 
412 419 
412 420 
413 417 
413 420 
413 435 
414 418 
414 419 
414 436 
415 417 
415 419 
415 515 
416 418 
416 420 
416 516 
421 427 
421 428 
422 429 
422 430 
423 427 
423 430 
424 428 
424 429 
425 427 
425 429 
426 428 
426 430 
431 437 
431 438 
432 439 
432 440 
433 437 
433 440 
434 438 
434 439 
435 437 
435 439 
436 438 
436 440 
441 447 
441 448 
442 449 
442 450 
443 447 
443 450 
444 448 
444 449 
445 447 
445 449 
446 448 
446 450 
451 457 
451 458 
452 459 
452 460 
453 457 
453 460 
454 458 
454 459 
455 457 
455 459 
456 458 
456 460 
461 467 
461 468 
462 469 
462 470 
463 467 
463 470 
464 468 
464 469 
465 467 
465 469 
466 468 
466 470 
471 477 
471 478 
472 479 
472 480 
473 477 
473 480 
474 478 
474 479 
475 477 
475 479 
476 478 
476 480 
481 487 
481 488 
482 489 
482 490 
483 487 
483 490 
484 488 
484 489 
485 487 
485 489 
485 505 
486 488 
486 490 
486 506 
491 497 
491 498 
492 499 
492 500 
493 497 
493 500 
494 498 
494 499 
495 497 
495 499 
496 498 
496 500 
501 507 
501 508 
502 509 
502 510 
503 507 
503 510 
504 508 
504 509 
505 507 
505 509 
506 508 
506 510 
511 517 
511 518 
512 519 
512 520 
513 517 
513 520 
514 518 
514 519 
515 517 
515 519 
516 518 
516 520 
